 vasp.5.4.4.18Apr17-6-g9f103f2a35 (build Dec 13 2018 10:28:32) complex

 executed on             LinuxIFC date 2019.05.21  08:49:05

 INCAR:
 POTCAR:   PAW_PBE F 08Apr2002
 POTCAR:   PAW_PBE Ni 06Sep2000
 POTCAR:   PAW_PBE Cs_sv 08Apr2002

 POTCAR:   PAW_PBE F 08Apr2002
   VRHFIN =F: s2p5

   TITEL  = PAW_PBE F 08Apr2002
   POMASS =   18.998; ZVAL   =    7.000    mass and valenz
   ENMAX  =  400.000; ENMIN  =  300.000 eV
   QCUT   =   -5.545; QGAM   =   11.091    optimization parameters

   Description
     l     E      TYP  RCUT    TYP  RCUT
     0   .000     23  1.200
     0  -.700     23  1.200
     1   .000     23  1.520
     1   .100     23  1.520
     2   .000      7  1.500

 POTCAR:   PAW_PBE Ni 06Sep2000
   VRHFIN =Ni:

   TITEL  = PAW_PBE Ni 06Sep2000
   POMASS =   58.690; ZVAL   =   10.000    mass and valenz
   ENMAX  =  269.533; ENMIN  =  202.150 eV
   QCUT   =   -4.451; QGAM   =    8.902    optimization parameters

[...]

 POTCAR:   PAW_PBE Cs_sv 08Apr2002
   VRHFIN =Cs: 5s5p6s

   TITEL  = PAW_PBE Cs_sv 08Apr2002
   POMASS =  132.900; ZVAL   =    9.000    mass and valenz
   ENMAX  =  220.318; ENMIN  =  165.238 eV
   QCUT   =   -4.024; QGAM   =    8.048    optimization parameters

   Description
     l     E      TYP  RCUT    TYP  RCUT
     0   .000     23  1.900
     0   .000     23  1.900
     0   .000     23  1.900
     0   .000     23  1.900
     1   .000     23  2.500
     1  -.200     23  2.500
     2   .000     23  2.500

 PAW_PBE F 08Apr2002                    :
 PAW_PBE Ni 06Sep2000                   :
 PAW_PBE Cs_sv 08Apr2002                :

 POSCAR: For VASP. System= small
  positions in cartesian coordinates
  velocities in cartesian coordinates
 exchange correlation table for  LEXCH =        8
   RHO(1)=    0.500       N(1)  =     2000
   RHO(2)=  100.500       N(2)  =     4000

 ion  position               nearest neighbor table
   1  0.570  0.640  0.250-  32 2.04  28 2.04
   2  0.070  0.640  0.250-  31 2.04  27 2.04
   3  0.570  0.140  0.250-  30 2.04  26 2.04
   4  0.070  0.140  0.250-  29 2.04  25 2.04
   5  0.860  0.930  0.250-  29 2.04  25 2.04
   6  0.360  0.930  0.250-  30 2.04  26 2.04
   7  0.860  0.430  0.250-  31 2.04  27 2.04
   8  0.360  0.430  0.250-  32 2.04  28 2.04
   9  0.570  0.930  0.250-  30 2.04  26 2.04
  10  0.070  0.930  0.250-  29 2.04  25 2.04
  11  0.570  0.430  0.250-  32 2.04  28 2.04
  12  0.070  0.430  0.250-  31 2.04  27 2.04
  13  0.930  0.860  0.750-  25 2.04  29 2.04
  14  0.430  0.860  0.750-  26 2.04  30 2.04
  15  0.930  0.360  0.750-  27 2.04  31 2.04
  16  0.430  0.360  0.750-  28 2.04  32 2.04
  17  0.640  0.570  0.750-  28 2.04  32 2.04
  18  0.140  0.570  0.750-  27 2.04  31 2.04
  19  0.640  0.070  0.750-  26 2.04  30 2.04
  20  0.140  0.070  0.750-  25 2.04  29 2.04
  21  0.930  0.570  0.750-  27 2.04  31 2.04
  22  0.430  0.570  0.750-  28 2.04  32 2.04
  23  0.930  0.070  0.750-  25 2.04  29 2.04
  24  0.430  0.070  0.750-  26 2.04  30 2.04
  25  0.000  0.000  0.000-  20 2.04   5 2.04   4 2.04  13 2.04  23 2.04  10 2.04  29 2.66  29 2.66

  26  0.500  0.000  0.000-  19 2.04   6 2.04   3 2.04  14 2.04  24 2.04   9 2.04  30 2.66  30 2.66

[...]

  32  0.500  0.500  0.500-   8 2.04  17 2.04   1 2.04  16 2.04  11 2.04  22 2.04  28 2.66  28 2.66

  33  0.667  0.833  0.750-
  34  0.167  0.833  0.750-
  35  0.667  0.333  0.750-
  36  0.167  0.333  0.750-
  37  0.833  0.667  0.250-
  38  0.333  0.667  0.250-
  39  0.833  0.167  0.250-
  40  0.333  0.167  0.250-

  LATTYP: Found a hexagonal cell.
 ALAT       =    12.7752670119
 C/A-ratio  =     0.4167528495

  Lattice vectors:

 A1 = (   6.3876227840,  11.0637119627,   0.0000000000)
 A2 = (   6.3876227840, -11.0637119627,   0.0000000000)
 A3 = (   0.0000000000,   0.0000000000,  -5.3241289298)

Analysis of symmetry for initial positions (statically):
 Subroutine PRICEL returns following result:

[...]

   4 primitive cells build up your supercell.

 Routine SETGRP: Setting up the symmetry group for a
 hexagonal supercell.

 Subroutine GETGRP returns: Found  8 space group operations
 (whereof  4 operations were pure point group operations)
 out of a pool of 24 trial point group operations.

The static configuration has the point symmetry C_2h.
 The point group associated with its full space group is D_2h.

Analysis of symmetry for dynamics (positions and initial velocities):
 Subroutine PRICEL returns following result:

  LATTYP: Found a hexagonal cell.
 ALAT       =     6.3876335059
 C/A-ratio  =     0.8335056989

  Lattice vectors:

 A1 = (   3.1938113920,   5.5318559813,   0.0000000000)
 A2 = (   3.1938113920,  -5.5318559813,   0.0000000000)
 A3 = (   0.0000000000,   0.0000000000,  -5.3241289298)

   4 primitive cells build up your supercell.

[...]

The dynamic configuration has the point symmetry C_2h.
 The point group associated with its full space group is D_2h.

Analysis of structural, dynamic, and magnetic symmetry:
 Subroutine PRICEL returns:
 Original cell was already a primitive cell.

 Routine SETGRP: Setting up the symmetry group for a
 hexagonal supercell.

 Subroutine GETGRP returns: Found  2 space group operations
 (whereof  2 operations were pure point group operations)
 out of a pool of 24 trial point group operations.

The magnetic configuration has the point symmetry S_2 .

 Subroutine INISYM returns: Found  2 space group operations
 (whereof  2 operations are pure point group operations),
 and found     1 'primitive' translations

 KPOINTS: Automatic mesh

Automatic generation of k-mesh.
Space group operators:
 irot       det(A)        alpha          n_x          n_y          n_z        tau_x        tau_y        tau_z
    1     1.000000     0.000000     1.000000     0.000000     0.000000     0.000000     0.000000     0.000000
    2    -1.000000     0.000000     1.000000     0.000000     0.000000     0.000000     0.000000     0.000000

 Subroutine IBZKPT returns following result:

 Found     12 irreducible k-points:

 Following reciprocal coordinates:
            Coordinates               Weight
  0.000000  0.000000  0.000000      1.000000
  0.500000  0.000000  0.000000      1.000000
  0.000000  0.500000  0.000000      1.000000
  0.500000  0.500000  0.000000      1.000000
  0.000000  0.000000  0.250000      2.000000
  0.500000  0.000000  0.250000      2.000000
  0.000000  0.500000  0.250000      2.000000
  0.500000  0.500000  0.250000      2.000000
  0.000000  0.000000  0.500000      1.000000
  0.500000  0.000000  0.500000      1.000000
  0.000000  0.500000  0.500000      1.000000
  0.500000  0.500000  0.500000      1.000000

 Following cartesian coordinates:
            Coordinates               Weight
  0.000000  0.000000  0.000000      1.000000
  0.039138  0.022596  0.000000      1.000000
  0.000000  0.045193  0.000000      1.000000
  0.039138  0.067789  0.000000      1.000000
  0.000000  0.000000  0.046956      2.000000
  0.039138  0.022596  0.046956      2.000000
  0.000000  0.045193  0.046956      2.000000
  0.039138  0.067789  0.046956      2.000000
  0.000000  0.000000  0.093912      1.000000
  0.039138  0.022596  0.093912      1.000000
  0.000000  0.045193  0.093912      1.000000
  0.039138  0.067789  0.093912      1.000000

 SYSTEM =  CsNiF3 AF without U
 POSCAR =  For VASP. System= small

 Startparameter for this run:
   NWRITE =      2    write-flag & timer
   PREC   = high      normal or accurate (medium, high low for compatibility)
   ISTART =      0    job   : 0-new  1-cont  2-samecut
   ICHARG =      2    charge: 1-file 2-atom 10-const
   ISPIN  =      2    spin polarized calculation?
   LNONCOLLINEAR =      F non collinear calculations
   LSORBIT =      F    spin-orbit coupling
   INIWAV =      1    electr: 0-lowe 1-rand  2-diag
   LASPH  =      F    aspherical Exc in radial PAW
   METAGGA=      F    non-selfconsistent MetaGGA calc.

 Electronic Relaxation 1
   ENCUT  =  520.0 eV  38.22 Ry    6.18 a.u.  23.75 23.75  9.90*2*pi/ulx,y,z
   ENINI  =  520.0     initial cutoff
   ENAUG  =  613.6 eV  augmentation charge cutoff
   NELM   =    100;   NELMIN=  2; NELMDL= -5     # of ELM steps
   EDIFF  = 0.1E-06   stopping-criterion for ELM
   LREAL  =      T    real-space projection
   NLSPLINE    = F    spline interpolate recip. space projectors
   LCOMPAT=      F    compatible to vasp.4.4
   GGA_COMPAT  = T    GGA compatible to vasp.4.4-vasp.4.6
   LMAXPAW     = -100 max onsite density
   LMAXMIX     =    2 max onsite mixed and CHGCAR
   VOSKOWN=      0    Vosko Wilk Nusair interpolation
   ROPT   =    0.00000   0.00000   0.00000
 Ionic relaxation
   EDIFFG = 0.1E-05   stopping-criterion for IOM
   NSW    =      0    number of steps for IOM
   NBLOCK =      1;   KBLOCK =      1    inner block; outer block
   IBRION =     -1    ionic relax: 0-MD 1-quasi-New 2-CG
   NFREE  =      0    steps in history (QN), initial steepest desc. (CG)
   ISIF   =      2    stress and relaxation
   IWAVPR =     10    prediction:  0-non 1-charg 2-wave 3-comb
   ISYM   =      2    0-nonsym 1-usesym 2-fastsym
   LCORR  =      T    Harris-Foulkes like correction to forces

   POTIM  = 0.5000    time-step for ionic-motion
   TEIN   =    0.0    initial temperature
   TEBEG  =    0.0;   TEEND  =   0.0 temperature during run
   SMASS  =  -3.00    Nose mass-parameter (am)
   estimated Nose-frequenzy (Omega)   =  0.10E-29 period in steps =****** mass=  -0.373E-26a.u.
   SCALEE = 1.0000    scale energy and forces
   NPACO  =    256;   APACO  = 16.0  distance and # of slots for P.C.
   PSTRESS=    0.0 pullay stress

  Mass of Ions in am
   POMASS =  19.00 58.69132.90
  Ionic Valenz
   ZVAL   =   7.00 10.00  9.00
  Atomic Wigner-Seitz radii
  virtual crystal weights
   VCA    =   1.00  1.00  1.00
   NELECT =     320.0000    total number of electrons
   NUPDOWN=      -1.0000    fix difference up-down

 DOS related values:
   EMIN   =  10.00;   EMAX   =-10.00  energy-range for DOS
   EFERMI =   0.00
   ISMEAR =     0;   SIGMA  =   0.20  broadening in eV -4-tet -1-fermi 0-gaus

 Electronic relaxation 2 (details)
   IALGO  =     38    algorithm
   LDIAG  =      T    sub-space diagonalisation (order eigenvalues)
   LSUBROT=      F    optimize rotation matrix (better conditioning)
   TURBO    =      0    0=normal 1=particle mesh
   IRESTART =      0    0=no restart 2=restart with 2 vectors
   NREBOOT  =      0    no. of reboots
   NMIN     =      0    reboot dimension
   EREF     =   0.00    reference energy to select bands
   IMIX   =      4    mixing-type and parameters
     AMIX     =   0.40;   BMIX     =  1.00
     AMIX_MAG =   1.60;   BMIX_MAG =  1.00
     AMIN     =   0.10
     WC   =   100.;   INIMIX=   1;  MIXPRE=   1;  MAXMIX= -45

 Intra band minimization:
   WEIMIN = 0.0000     energy-eigenvalue tresh-hold
   EBREAK =  0.13E-09  absolut break condition
   DEPER  =   0.30     relativ break condition

   TIME   =   0.40     timestep for ELM

  volume/ion in A,a.u.               =      18.81       126.96
  Fermi-wavevector in a.u.,A,eV,Ry     =   1.231077  2.326398 20.620322  1.515551
  Thomas-Fermi vector in A             =   2.365901

 Write flags
   LWAVE        =      F    write WAVECAR
   LDOWNSAMPLE  =      F    k-point downsampling of WAVECAR
[...]
     21     -21.6692      1.00000
     22     -21.6692      1.00000
     23     -21.6691      1.00000
     24     -21.6691      1.00000
     25     -19.7391      1.00000
     26     -19.7391      1.00000
     27     -19.7391      1.00000
     28     -19.7391      1.00000
     29     -19.7318      1.00000
     30     -19.7318      1.00000
     31     -19.7316      1.00000
     32     -19.7316      1.00000
     33      -6.8604      1.00000
     34      -6.8603      1.00000
     35      -6.8578      1.00000
     36      -6.8573      1.00000
     37      -6.8460      1.00000
     38      -6.8459      1.00000
     39      -6.8449      1.00000
     40      -6.8448      1.00000
     41      -6.7982      1.00000
     42      -6.7980      1.00000
     43      -6.7961      1.00000
     44      -6.7948      1.00000
     45      -6.6736      1.00000
     46      -6.6736      1.00000
     47      -6.6733      1.00000
     48      -6.6729      1.00000
     49      -6.5931      1.00000
     50      -6.5920      1.00000
     51      -6.5917      1.00000
     52      -6.5905      1.00000
     53      -6.4928      1.00000
     54      -6.4923      1.00000
     55      -6.4922      1.00000
     56      -6.4914      1.00000
     57      -5.2340      1.00000
     58      -5.2339      1.00000
     59      -5.1822      1.00000
     60      -5.0664      1.00000
[...]
    182       6.8418      0.00000
    183       6.8454      0.00000
    184       6.8531      0.00000
    185       6.9796      0.00000
    186       6.9830      0.00000
    187       6.9838      0.00000
    188       6.9963      0.00000
    189       7.6297      0.00000
    190       7.6316      0.00000
    191       7.6348      0.00000
    192       7.6353      0.00000
    193       7.8076      0.00000
    194       7.8086      0.00000
    195       7.8091      0.00000
    196       7.8361      0.00000

 soft charge-density along one line, spin component           1
         0         1         2         3         4         5         6         7         8         9
 total charge-density along one line

 soft charge-density along one line, spin component           2
         0         1         2         3         4         5         6         7         8         9
 total charge-density along one line

------------------------ aborting loop because EDIFF is reached ----------------------------------------

 total charge

# of ion       s       p       d       tot
    1        1.736   4.329   0.000   6.065
    2        1.736   4.329   0.000   6.064
    3        1.736   4.329   0.000   6.064
    4        1.736   4.329   0.000   6.064
    5        1.736   4.329   0.000   6.064
    6        1.736   4.329   0.000   6.064
    7        1.736   4.329   0.000   6.064
    8        1.736   4.329   0.000   6.065
    9        1.736   4.329   0.000   6.064
   10        1.736   4.329   0.000   6.064
   11        1.736   4.329   0.000   6.065
   12        1.736   4.329   0.000   6.064
   13        1.736   4.329   0.000   6.064
   14        1.736   4.329   0.000   6.064
   15        1.736   4.329   0.000   6.064
   16        1.736   4.329   0.000   6.065
   17        1.736   4.329   0.000   6.065
   18        1.736   4.329   0.000   6.064
   19        1.736   4.329   0.000   6.064
   20        1.736   4.329   0.000   6.064
   21        1.736   4.329   0.000   6.064
   22        1.736   4.329   0.000   6.065
   23        1.736   4.329   0.000   6.064
   24        1.736   4.329   0.000   6.064
   25        0.296   0.367   8.176   8.839
   26        0.296   0.367   8.176   8.839
   27        0.296   0.367   8.176   8.839
   28        0.296   0.368   8.172   8.837
   29        0.296   0.367   8.176   8.839
   30        0.296   0.367   8.176   8.839
   31        0.296   0.367   8.176   8.839
   32        0.296   0.368   8.172   8.837
   33        1.838   4.719   0.017   6.574
   34        1.838   4.719   0.017   6.574
   35        1.838   4.719   0.017   6.574
   36        1.838   4.719   0.017   6.574
   37        1.838   4.719   0.017   6.574
   38        1.838   4.719   0.017   6.574
   39        1.838   4.719   0.017   6.574
   40        1.838   4.719   0.017   6.574
tot         58.728 144.580  65.541 268.850

 magnetization (x)

[...]

  FORCE on cell =-STRESS in cart. coord.  units (eV):
  Direction    XX          YY          ZZ          XY          YZ          ZX
  Alpha Z  1278.33848  1278.33848  1278.33848
  Ewald   -7609.75632 -7610.00282  -791.44196    -0.20307    -0.00000     0.00000
  Hartree  2322.02700  2321.81210  8055.53147    -0.17835    -0.00023    -0.00039
  E(xc)   -1677.18759 -1677.18871 -1675.11905    -0.00114     0.00002     0.00003
  Local     556.95192   557.40262-11901.70673     0.37515     0.00042     0.00071
  n-local -1126.90594 -1126.90641 -1113.01629     0.00047     0.00016     0.00028
  augment   750.25488   750.25746   727.65821     0.00241    -0.00009    -0.00015
  Kinetic  5506.36140  5506.36749  5419.66893     0.00075    -0.00008    -0.00012
  Fock        0.00000     0.00000     0.00000     0.00000     0.00000     0.00000
  Total       0.08384     0.08022    -0.08693    -0.00378     0.00019     0.00034
  in kB       0.17849     0.17078    -0.18509    -0.00805     0.00040     0.00073

 VOLUME and BASIS-vectors are now :
  energy-cutoff  :      520.00
  volume of cell :      752.52
      direct lattice vectors                 reciprocal lattice vectors
    12.775245568  0.000000000  0.000000000     0.078276382  0.045192789  0.000000000
    -6.387622784 11.063711963  0.000000000     0.000000000  0.090385578  0.000000000
     0.000000000  0.000000000  5.324128930     0.000000000  0.000000000  0.187824152

  length of vectors
    12.775245568 12.775267012  5.324128930     0.090385730  0.090385578  0.187824152

 FORCES acting on ions
    electron-ion (+dipol)            ewald-force                    non-local-force                 convergence-correction
   0.411E-03 -.392E+03 -.509E-04   -.107E-02 0.408E+03 -.641E-08   0.675E-03 -.164E+02 0.396E-04   -.492E-05 -.275E-03 -.151E-04
   0.949E-03 -.392E+03 -.128E-03   -.107E-02 0.408E+03 -.641E-08   0.262E-03 -.163E+02 0.118E-03   -.233E-05 -.274E-03 -.695E-05
   0.727E-03 -.392E+03 0.705E-04   -.107E-02 0.408E+03 -.641E-08   0.594E-03 -.163E+02 -.414E-04   -.162E-03 0.464E-04 -.837E-07
   0.631E-03 -.392E+03 -.945E-04   -.107E-02 0.408E+03 -.641E-08   0.341E-03 -.163E+02 0.520E-04   0.160E-03 0.831E-04 -.326E-04
   0.339E+03 0.196E+03 -.458E-04   -.354E+03 -.204E+03 -.641E-08   0.142E+02 0.817E+01 0.489E-04   0.620E-04 -.178E-03 -.331E-04
   0.339E+03 0.196E+03 0.133E-03   -.354E+03 -.204E+03 -.642E-08   0.142E+02 0.817E+01 -.115E-03   0.237E-03 0.108E-03 -.234E-05
   0.339E+03 0.196E+03 -.674E-04   -.354E+03 -.204E+03 -.642E-08   0.142E+02 0.817E+01 0.463E-04   -.151E-03 0.154E-03 -.756E-05
   0.339E+03 0.196E+03 -.106E-02   -.354E+03 -.204E+03 -.642E-08   0.142E+02 0.818E+01 0.883E-03   0.178E-03 0.139E-03 -.174E-04
   -.339E+03 0.196E+03 0.948E-04   0.354E+03 -.204E+03 -.641E-08   -.142E+02 0.817E+01 -.428E-04   -.928E-04 -.161E-03 -.666E-06
   -.339E+03 0.196E+03 -.828E-04   0.354E+03 -.204E+03 -.641E-08   -.142E+02 0.817E+01 0.121E-03   -.210E-03 0.873E-04 -.323E-04
   -.339E+03 0.196E+03 -.283E-04   0.354E+03 -.204E+03 -.641E-08   -.142E+02 0.818E+01 0.420E-04   -.182E-03 0.137E-03 -.164E-04
   -.339E+03 0.196E+03 -.943E-04   0.354E+03 -.204E+03 -.641E-08   -.142E+02 0.817E+01 0.514E-04   0.145E-03 0.155E-03 -.781E-05
   -.631E-03 0.392E+03 0.943E-04   0.107E-02 -.408E+03 -.641E-08   -.341E-03 0.163E+02 -.520E-04   -.160E-03 -.831E-04 0.326E-04
   -.727E-03 0.392E+03 -.707E-04   0.107E-02 -.408E+03 -.641E-08   -.594E-03 0.163E+02 0.414E-04   0.162E-03 -.464E-04 0.837E-07
   -.949E-03 0.392E+03 0.127E-03   0.107E-02 -.408E+03 -.641E-08   -.262E-03 0.163E+02 -.118E-03   0.233E-05 0.274E-03 0.695E-05
   -.411E-03 0.392E+03 0.508E-04   0.107E-02 -.408E+03 -.641E-08   -.675E-03 0.164E+02 -.396E-04   0.492E-05 0.275E-03 0.151E-04
   -.339E+03 -.196E+03 0.106E-02   0.354E+03 0.204E+03 -.642E-08   -.142E+02 -.818E+01 -.883E-03   -.178E-03 -.139E-03 0.174E-04
   -.339E+03 -.196E+03 0.673E-04   0.354E+03 0.204E+03 -.642E-08   -.142E+02 -.817E+01 -.463E-04   0.151E-03 -.154E-03 0.756E-05
   -.339E+03 -.196E+03 -.133E-03   0.354E+03 0.204E+03 -.642E-08   -.142E+02 -.817E+01 0.115E-03   -.237E-03 -.108E-03 0.234E-05
   -.339E+03 -.196E+03 0.456E-04   0.354E+03 0.204E+03 -.642E-08   -.142E+02 -.817E+01 -.489E-04   -.620E-04 0.178E-03 0.331E-04
   0.339E+03 -.196E+03 0.941E-04   -.354E+03 0.204E+03 -.641E-08   0.142E+02 -.817E+01 -.514E-04   -.145E-03 -.155E-03 0.781E-05
   0.339E+03 -.196E+03 0.281E-04   -.354E+03 0.204E+03 -.641E-08   0.142E+02 -.818E+01 -.420E-04   0.182E-03 -.137E-03 0.164E-04
   0.339E+03 -.196E+03 0.826E-04   -.354E+03 0.204E+03 -.641E-08   0.142E+02 -.817E+01 -.121E-03   0.210E-03 -.873E-04 0.323E-04
   0.339E+03 -.196E+03 -.949E-04   -.354E+03 0.204E+03 -.641E-08   0.142E+02 -.817E+01 0.428E-04   0.928E-04 0.161E-03 0.666E-06
   -.465E-10 0.972E-09 -.322E-08   0.265E-09 -.724E-08 0.206E-07   0.000E+00 0.000E+00 0.000E+00   0.971E-12 0.212E-09 0.304E-11
   -.448E-10 0.972E-09 -.322E-08   0.265E-09 -.724E-08 0.206E-07   0.165E-23 0.000E+00 0.000E+00   0.711E-12 0.212E-09 0.314E-11
   -.159E-08 0.665E-08 -.224E-08   0.874E-08 0.171E-08 0.100E-07   0.258E-24 0.000E+00 0.000E+00   0.328E-11 -.192E-09 -.485E-11
   -.158E-08 0.666E-08 -.221E-08   0.874E-08 0.171E-08 0.100E-07   0.000E+00 0.000E+00 0.000E+00   0.284E-11 -.192E-09 -.474E-11
   -.469E-10 0.972E-09 -.368E-08   0.267E-09 -.724E-08 0.181E-07   0.000E+00 0.000E+00 0.000E+00   0.849E-12 0.212E-09 -.330E-11
   -.453E-10 0.972E-09 -.368E-08   0.267E-09 -.724E-08 0.181E-07   0.000E+00 0.000E+00 0.000E+00   0.621E-12 0.212E-09 -.345E-11
   -.159E-08 0.665E-08 -.469E-08   0.874E-08 0.171E-08 0.287E-07   0.000E+00 0.000E+00 0.000E+00   0.314E-11 -.192E-09 0.457E-11
   -.159E-08 0.666E-08 -.468E-08   0.874E-08 0.171E-08 0.287E-07   0.124E-23 0.000E+00 0.000E+00   0.276E-11 -.192E-09 0.443E-11
   -.763E-02 0.703E-02 -.255E-05   0.754E-02 -.538E-02 -.113E-09   0.121E-03 -.472E-03 -.157E-05   0.659E-05 -.359E-03 0.363E-05
   -.766E-02 0.548E-02 -.322E-05   0.754E-02 -.538E-02 -.113E-09   0.122E-03 -.969E-04 0.548E-06   -.717E-05 -.424E-04 0.341E-05
   -.631E-02 0.467E-02 -.135E-05   0.754E-02 -.538E-02 -.113E-09   -.202E-03 0.751E-04 -.146E-05   -.267E-03 0.215E-03 0.268E-05
   -.898E-02 0.465E-02 -.428E-04   0.754E-02 -.538E-02 -.113E-09   0.444E-03 0.753E-04 0.124E-03   0.263E-03 0.205E-03 0.395E-05
   0.898E-02 -.465E-02 0.427E-04   -.754E-02 0.538E-02 -.113E-09   -.444E-03 -.753E-04 -.124E-03   -.263E-03 -.205E-03 -.395E-05
   0.631E-02 -.467E-02 0.129E-05   -.754E-02 0.538E-02 -.113E-09   0.202E-03 -.751E-04 0.146E-05   0.267E-03 -.215E-03 -.268E-05
   0.766E-02 -.548E-02 0.316E-05   -.754E-02 0.538E-02 -.113E-09   -.122E-03 0.969E-04 -.548E-06   0.717E-05 0.424E-04 -.341E-05
   0.763E-02 -.703E-02 0.249E-05   -.754E-02 0.538E-02 -.113E-09   -.121E-03 0.472E-03 0.157E-05   -.659E-05 0.359E-03 -.363E-05
   0.289E-07 0.200E-05 -.239E-05   0.541E-12 0.107E-12 -.791E-14   0.000E+00 -.533E-14 0.000E+00   0.212E-10 0.976E-10 0.251E-10

 POSITION                                       TOTAL-FORCE (eV/Angst)
      3.19377      7.08259      1.33103         0.000008      0.012673     -0.000026
     -3.19385      7.08259      1.33103         0.000136      0.001865     -0.000016
      6.38758      1.55073      1.33103         0.000086      0.001788      0.000029
     -0.00004      1.55073      1.33103         0.000059      0.001717     -0.000075
      5.04463     10.28838      1.33103        -0.001650     -0.000863     -0.000030
     -1.34299     10.28838      1.33103        -0.001711     -0.000987      0.000016
      8.23844      4.75653      1.33103        -0.001572     -0.001003     -0.000029
      1.85082      4.75653      1.33103        -0.011005     -0.006358     -0.000198
      1.34300     10.28833      1.33103         0.001464     -0.000746      0.000051
     -5.04462     10.28833      1.33103         0.001549     -0.000736      0.000006
      4.53681      4.75647      1.33103         0.010839     -0.006252     -0.000003
     -1.85081      4.75647      1.33103         0.001393     -0.000740     -0.000051
      6.38767      9.51298      3.99310        -0.000059     -0.001717      0.000075
      0.00004      9.51298      3.99310        -0.000086     -0.001788     -0.000029
      9.58148      3.98112      3.99310        -0.000136     -0.001865      0.000016
      3.19385      3.98112      3.99310        -0.000008     -0.012673      0.000026
      4.53680      6.30718      3.99310         0.011005      0.006358      0.000198
     -1.85082      6.30718      3.99310         0.001572      0.001003      0.000029
      7.73061      0.77533      3.99310         0.001711      0.000987     -0.000016
      1.34299      0.77533      3.99310         0.001650      0.000863      0.000030
      8.23843      6.30724      3.99310        -0.001393      0.000740      0.000051
      1.85081      6.30724      3.99310        -0.010839      0.006252      0.000003
     11.43224      0.77538      3.99310        -0.001549      0.000736     -0.000006
      5.04462      0.77538      3.99310        -0.001464      0.000746     -0.000051
      0.00000      0.00000      0.00000        -0.000000     -0.000000      0.000000
      6.38762      0.00000      0.00000        -0.000000     -0.000000      0.000000
      9.58143      5.53186      0.00000        -0.000000     -0.000000      0.000000
      3.19381      5.53186      0.00000        -0.000000     -0.000000      0.000000
      0.00000      0.00000      2.66206        -0.000000     -0.000000      0.000000
      6.38762      0.00000      2.66206        -0.000000     -0.000000      0.000000
      9.58143      5.53186      2.66206        -0.000000     -0.000000      0.000000
      3.19381      5.53186      2.66206        -0.000000     -0.000000      0.000000
      3.19382      9.21975      3.99310         0.000038      0.000819     -0.000000
     -3.19380      9.21975      3.99310        -0.000005     -0.000034      0.000001
      6.38763      3.68790      3.99310         0.000762     -0.000421     -0.000000
      0.00001      3.68790      3.99310        -0.000730     -0.000446      0.000085
      6.38761      7.37581      1.33103         0.000730      0.000446     -0.000085
     -0.00001      7.37581      1.33103        -0.000762      0.000421      0.000000
      9.58143      1.84396      1.33103         0.000005      0.000034     -0.000001
      3.19380      1.84396      1.33103        -0.000038     -0.000819      0.000000
    total drift:                                0.000000      0.000002     -0.000002

  FREE ENERGIE OF THE ION-ELECTRON SYSTEM (eV)
  free  energy   TOTEN  =      -183.02049494 eV

  energy  without entropy=     -183.02048867  energy(sigma->0) =     -183.02049180

 total charge

[...]

 magnetization (x)

# of ion       s       p       d       tot
    1        0.000   0.000   0.000   0.000
    2        0.004   0.101   0.000   0.105
    3       -0.004  -0.101   0.000  -0.105
    4        0.004   0.101   0.000   0.105
    5        0.004   0.101   0.000   0.105
    6       -0.004  -0.100   0.000  -0.104
    7        0.004   0.101   0.000   0.105
    8        0.000   0.000   0.000   0.000
    9       -0.004  -0.101   0.000  -0.105
   10        0.004   0.101   0.000   0.105
   11        0.000   0.000   0.000   0.000
   12        0.004   0.101   0.000   0.105
   13        0.004   0.101   0.000   0.105
   14       -0.004  -0.101   0.000  -0.105
   15        0.004   0.101   0.000   0.105
   16        0.000   0.000   0.000   0.000
   17        0.000   0.000   0.000   0.000
   18        0.004   0.101   0.000   0.105
   19       -0.004  -0.100   0.000  -0.104
   20        0.004   0.101   0.000   0.105
   21        0.004   0.101   0.000   0.105
   22        0.000   0.000   0.000   0.000
   23        0.004   0.101   0.000   0.105
   24       -0.004  -0.101   0.000  -0.105
   25        0.000  -0.001   1.644   1.642
   26       -0.000   0.001  -1.644  -1.642
   27        0.000  -0.001   1.644   1.642
   28       -0.002  -0.002  -1.646  -1.650
   29        0.000  -0.001   1.644   1.642
   30       -0.000   0.001  -1.644  -1.642
   31        0.000  -0.001   1.644   1.642
   32        0.002   0.002   1.647   1.651
   33        0.000   0.000   0.000   0.000
   34        0.000   0.000   0.000   0.001
   35        0.000   0.000   0.000   0.000
   36        0.000   0.001   0.000   0.001
   37        0.000   0.001   0.000   0.001
   38        0.000   0.000   0.000   0.000
   39        0.000   0.000   0.000   0.001
   40        0.000   0.000   0.000   0.000
tot          0.025   0.604   3.288   3.917